Problem:    Ex302
Rows:       22
Columns:    21 (21 integer, 0 binary)
Non-zeros:  105
Status:     INTEGER OPTIMAL
Objective:  z = 33 (MINimum)

   No.   Row name        Activity     Lower bound   Upper bound
------ ------------    ------------- ------------- -------------
     1 z                          33                             
     2 r_NecessitatTorn[nit,1]
                                   5             5               
     3 r_NecessitatTorn[nit,2]
                                   3             3               
     4 r_NecessitatTorn[nit,3]
                                   3             2               
     5 r_NecessitatTorn[nit,4]
                                   4             4               
     6 r_NecessitatTorn[nit,5]
                                   3             3               
     7 r_NecessitatTorn[nit,6]
                                   3             2               
     8 r_NecessitatTorn[nit,7]
                                   3             2               
     9 r_NecessitatTorn[mati,1]
                                   7             7               
    10 r_NecessitatTorn[mati,2]
                                  10             8               
    11 r_NecessitatTorn[mati,3]
                                  10             9               
    12 r_NecessitatTorn[mati,4]
                                   7             5               
    13 r_NecessitatTorn[mati,5]
                                   7             7               
    14 r_NecessitatTorn[mati,6]
                                   2             2               
    15 r_NecessitatTorn[mati,7]
                                   5             5               
    16 r_NecessitatTorn[tarda,1]
                                   9             9               
    17 r_NecessitatTorn[tarda,2]
                                  10            10               
    18 r_NecessitatTorn[tarda,3]
                                  10            10               
    19 r_NecessitatTorn[tarda,4]
                                  10             7               
    20 r_NecessitatTorn[tarda,5]
                                  11            11               
    21 r_NecessitatTorn[tarda,6]
                                   5             2               
    22 r_NecessitatTorn[tarda,7]
                                   5             2               

   No. Column name       Activity     Lower bound   Upper bound
------ ------------    ------------- ------------- -------------
     1 x[nit,1]     *              3             0               
     2 x[nit,2]     *              0             0               
     3 x[nit,3]     *              0             0               
     4 x[nit,4]     *              1             0               
     5 x[nit,5]     *              2             0               
     6 x[nit,6]     *              0             0               
     7 x[nit,7]     *              0             0               
     8 x[mati,1]    *              2             0               
     9 x[mati,2]    *              5             0               
    10 x[mati,3]    *              0             0               
    11 x[mati,4]    *              0             0               
    12 x[mati,5]    *              2             0               
    13 x[mati,6]    *              0             0               
    14 x[mati,7]    *              3             0               
    15 x[tarda,1]   *              4             0               
    16 x[tarda,2]   *              6             0               
    17 x[tarda,3]   *              0             0               
    18 x[tarda,4]   *              0             0               
    19 x[tarda,5]   *              5             0               
    20 x[tarda,6]   *              0             0               
    21 x[tarda,7]   *              0             0               

Integer feasibility conditions:

KKT.PE: max.abs.err = 0.00e+00 on row 0
        max.rel.err = 0.00e+00 on row 0
        High quality

KKT.PB: max.abs.err = 0.00e+00 on row 0
        max.rel.err = 0.00e+00 on row 0
        High quality

End of output
